\Problem name: 

Minimize
OBJROW:  +1.0 Iron_Ore_cost  +1.0 MWm_cost  +1.0 Iron_Ingot_cost  +1.0 Copper_Ore_cost  +1.0 Copper_Ingot_cost  +1.0 Caterium_Ore_cost  +1.0 Caterium_Ingot_cost  +1.0 Iron_Plate_cost  +1.0 Iron_Rod_cost  +1.0 Screws_cost  +1.0 Copper_Sheet_cost  +1.0 Steel_Ingot_cost  +1.0 Steel_Beam_cost  +1.0 Steel_Pipe_cost  +1.0 Wire_cost  +1.0 Cable_cost  +1.0 Quickwire_cost  +1.0 SAM_cost  +1.0 Reanimated_SAM_cost  +1.0 Limestone_cost  +1.0 Concrete_cost  +1.0 Raw_Quartz_cost  +1.0 Quartz_Crystal_cost
   +1.0 Silica_cost  +1.0 Leaves_cost  +1.0 Biomass_cost  +1.0 Wood_cost  +1.0 Mycelia_cost  +1.0 Alien_Protein_cost  +1.0 Solid_Biofuel_cost  +1.0 Plastic_cost  +1.0 Empty_Canister_cost  +1.0 Hog_Remains_cost  +1.0 Hatcher_Remains_cost  +1.0 Stinger_Remains_cost  +1.0 Spitter_Remains_cost  +1.0 Alien_DNA_Capsule_cost  +1.0 Blue_Power_Slug_cost  +1.0 Power_Shard_cost  +1.0 Yellow_Power_Slug_cost  +1.0 Purple_Power_Slug_cost  +1.0 Iron_Rebar_cost  +1.0 Coal_cost  +1.0 Petroleum_Coke_cost
   +1.0 Compacted_Coal_cost  +1.0 Reinforced_Iron_Plate_cost  +1.0 Rotor_cost  +1.0 Smart_Plating_cost  +1.0 Modular_Frame_cost  +1.0 Versatile_Framework_cost  +1.0 Stator_cost  +1.0 Automated_Wiring_cost  +1.0 Encased_Industrial_Beam_cost  +1.0 Circuit_Board_cost  +1.0 AI_Limiter_cost  +1.0 Fabric_cost  +1.0 Motor_cost  +1.0 Sulfur_cost  +1.0 Black_Powder_cost  +1.0 Stun_Rebar_cost  +1.0 Shatter_Rebar_cost  +1.0 Nobelisk_cost  +1.0 Gas_Nobelisk_cost  +1.0 Crystal_Oscillator_cost
   +1.0 Pulse_Nobelisk_cost  +1.0 Smokeless_Powder_cost  +1.0 Rifle_Ammo_cost  +1.0 Rubber_cost  +1.0 Modular_Engine_cost  +1.0 Heavy_Modular_Frame_cost  +1.0 Adaptive_Control_Unit_cost  +1.0 High_Speed_Connector_cost  +1.0 SAM_Fluctuator_cost  +1.0 Gas_Filter_cost  +1.0 Crude_Oil_cost  +1.0 Heavy_Oil_Residue_cost  +1.0 Polymer_Resin_cost  +1.0 Water_cost  +1.0 Fuel_cost  +1.0 Liquid_Biofuel_cost  +1.0 Packaged_Water_cost  +1.0 Packaged_Fuel_cost  +1.0 Turbofuel_cost
Subject To
Iron_Ore_cost:  +1.0 Iron_Ore_cost  -95.71292790000001 Smelter_Iron_Ingot  -143.56939185000002 Foundry_Steel_Ingot  -239.28231975000003 Foundry_Alternate_Coke_Steel_Ingot  -15.95215465 Foundry_Alternate_Compacted_Steel_Ingot  -111.66508255000001 Refinery_Alternate_Pure_Iron_Ingot >= 0.0
MWm_cost:  +1.0 MWm_cost  -14.90687148 Smelter_Iron_Ingot  -14.90687148 Smelter_Copper_Ingot  -14.90687148 Smelter_Caterium_Ingot  -14.90687148 Constructor_Iron_Plate  -14.90687148 Constructor_Iron_Rod  -14.90687148 Constructor_Screws  -14.90687148 Constructor_Copper_Sheet  -14.90687148 Constructor_Steel_Beam  -14.90687148 Constructor_Steel_Pipe  -14.90687148 Constructor_Wire  -14.90687148 Constructor_Cable  -14.90687148 Constructor_Quickwire  -14.90687148 Constructor_Reanimated_SAM
   -14.90687148 Constructor_Concrete  -14.90687148 Constructor_Quartz_Crystal  -14.90687148 Constructor_Silica  -14.90687148 Constructor_Biomass_Leaves  -14.90687148 Constructor_Biomass_Wood  -14.90687148 Constructor_Biomass_Mycelia  -14.90687148 Constructor_Biomass_Alien_Protein  -14.90687148 Constructor_Solid_Biofuel  -14.90687148 Constructor_Emtpy_Canister  -14.90687148 Constructor_Hog_Protein  -14.90687148 Constructor_Hatcher_Protein  -14.90687148 Constructor_Stinger_Protein
   -14.90687148 Constructor_Spitter_Protein  -14.90687148 Constructor_Alien_DNA_Capsule  -14.90687148 Constructor_Power_Shard_1  -14.90687148 Constructor_Power_Shard_2  -14.90687148 Constructor_Power_Shard_3  -14.90687148 Constructor_Iron_Rebar  -14.90687148 Constructor_Alternate_Steel_Rod  -14.90687148 Constructor_Alternate_Cast_Screws  -14.90687148 Constructor_Alternate_Steel_Screws  -14.90687148 Constructor_Alternate_Iron_Pipe  -14.90687148 Constructor_Alternate_Biocoal
   -14.90687148 Constructor_Alternate_Charcoal  -14.90687148 Constructor_Alternate_Steel_Canister  -59.62748592 Foundry_Steel_Ingot  -59.62748592 Foundry_Alternate_Solid_Steel_Ingot  -59.62748592 Foundry_Alternate_Coke_Steel_Ingot  -59.62748592 Foundry_Alternate_Compacted_Steel_Ingot  -59.62748592 Foundry_Alternate_Steel_Cast_Plate  -59.62748592 Foundry_Alternate_Molded_Beam  -59.62748592 Foundry_Alternate_Molded_Steel_Pipe  -55.900768049999996 Assembler_Smart_Plating
   -55.900768049999996 Assembler_Versatile_Framework  -55.900768049999996 Assembler_Automated_Wiring  -55.900768049999996 Assembler_Reinforced_Iron_Plate  -55.900768049999996 Assembler_Modular_Frame  -55.900768049999996 Assembler_Encased_Industrial_Beam  -55.900768049999996 Assembler_Circuit_Board  -55.900768049999996 Assembler_AI_Limiter  -55.900768049999996 Assembler_Fabric  -55.900768049999996 Assembler_Rotor  -55.900768049999996 Assembler_Stator  -55.900768049999996 Assembler_Motor
   -55.900768049999996 Assembler_Black_Powder  -55.900768049999996 Assembler_Stun_Rebar  -55.900768049999996 Assembler_Shatter_Rebar  -55.900768049999996 Assembler_Nobelisk  -55.900768049999996 Assembler_Gas_Nobelisk  -55.900768049999996 Assembler_Pulse_Nobelisk  -55.900768049999996 Assembler_Rifle_Ammo  -55.900768049999996 Assembler_Alternate_Bolted_Iron_Plate  -55.900768049999996 Assembler_Alternate_Adhered_Iron_Plate  -55.900768049999996 Assembler_Alternate_Bolted_Frame
   -55.900768049999996 Assembler_Alternate_Steeled_Frame  -55.900768049999996 Assembler_Alternate_Caterium_Circuit_Board  -55.900768049999996 Assembler_Alternate_Plastic_AI_Limiter  -55.900768049999996 Assembler_Alternate_Compacted_Coal  -55.900768049999996 Assembler_Alternate_Coppor_Rotor  -55.900768049999996 Assembler_Alternate_Steel_Rotor  -204.96948285 Manufacturer_Modular_Engine  -204.96948285 Manufacturer_Adaptive_Control_Unit  -204.96948285 Manufacturer_Heavy_Modular_Frame
   -204.96948285 Manufacturer_High_Speed_Connector  -204.96948285 Manufacturer_SAM_Fluctuator  -204.96948285 Manufacturer_Computer  -204.96948285 Manufacturer_Crystal_Oscillator  -204.96948285 Manufacturer_Gas_Filter  -204.96948285 Manufacturer_Alternate_Heavy_Encased_Frame  -204.96948285 Manufacturer_Alternate_Heavy_Flexible_Frame  -204.96948285 Manufacturer_Alternate_Silicon_High_Speed_Connector  -204.96948285 Manufacturer_Alternate_Caterium_Computer
   -204.96948285 Manufacturer_Alternate_Insulated_Crystal_Oscillator  -111.80153609999999 Refinery_Plastic  -111.80153609999999 Refinery_Residual_Plastic  -111.80153609999999 Refinery_Rubber  -111.80153609999999 Refinery_Residual_Rubber  -111.80153609999999 Refinery_Petroleum_Coke  -111.80153609999999 Refinery_Fuel  -111.80153609999999 Refinery_Residual_Fuel  -111.80153609999999 Refinery_Liquid_Biofuel  -111.80153609999999 Refinery_Residual_Smokeless_Powder
   -111.80153609999999 Refinery_Alternate_Recycled_Plastic  -111.80153609999999 Refinery_Alternate_Recycled_Rubber  -111.80153609999999 Refinery_Alternate_Heavy_Oil_Residue  -111.80153609999999 Refinery_Alternate_Diluted_Packaged_Fuel  -111.80153609999999 Refinery_Alternate_Turbo_Heavy_Fuel  -111.80153609999999 Refinery_Alternate_Pure_Iron_Ingot  -111.80153609999999 Refinery_Alternate_Pure_Copper_Ingot  -111.80153609999999 Refinery_Alternate_Pure_Caterium_Ingot
   -111.80153609999999 Refinery_Alternate_Wet_Concrete  -111.80153609999999 Refinery_Alternate_Steamed_Copper_Sheet  -111.80153609999999 Refinery_Alternate_Polyester_Fabric >= 0.0
Iron_Ingot_balance:  +30.0 Smelter_Iron_Ingot  -30.0 Constructor_Iron_Plate  -15.0 Constructor_Iron_Rod  -12.5 Constructor_Alternate_Cast_Screws  -100.0 Constructor_Alternate_Iron_Pipe  -40.0 Foundry_Alternate_Solid_Steel_Ingot  -15.0 Foundry_Alternate_Steel_Cast_Plate  +65.0 Refinery_Alternate_Pure_Iron_Ingot >= 0.0
Iron_Ingot_cost:  +1.0 Iron_Ingot_cost  +117.7984848 Smelter_Iron_Ingot  -117.7984848 Constructor_Iron_Plate  -58.8992424 Constructor_Iron_Rod  -49.082702 Constructor_Alternate_Cast_Screws  -392.661616 Constructor_Alternate_Iron_Pipe  -157.06464640000002 Foundry_Alternate_Solid_Steel_Ingot  -58.8992424 Foundry_Alternate_Steel_Cast_Plate  +255.2300504 Refinery_Alternate_Pure_Iron_Ingot >= 0.0
Copper_Ore_cost:  +1.0 Copper_Ore_cost  -92.2113966 Smelter_Copper_Ingot  -46.1056983 Refinery_Alternate_Pure_Copper_Ingot >= 0.0
Copper_Ingot_balance:  +30.0 Smelter_Copper_Ingot  -20.0 Constructor_Copper_Sheet  -15.0 Constructor_Wire  +37.5 Refinery_Alternate_Pure_Copper_Ingot  -22.5 Refinery_Alternate_Steamed_Copper_Sheet >= 0.0
Copper_Ingot_cost:  +1.0 Copper_Ingot_cost  +121.58243399999999 Smelter_Copper_Ingot  -81.05495599999999 Constructor_Copper_Sheet  -60.791216999999996 Constructor_Wire  +151.9780425 Refinery_Alternate_Pure_Copper_Ingot  -91.1868255 Refinery_Alternate_Steamed_Copper_Sheet >= 0.0
Caterium_Ore_cost:  +1.0 Caterium_Ore_cost  -171.39775229999998 Smelter_Caterium_Ingot  -91.41213456 Refinery_Alternate_Pure_Caterium_Ingot >= 0.0
Caterium_Ingot_balance:  +15.0 Smelter_Caterium_Ingot  -12.0 Constructor_Quickwire  +12.0 Refinery_Alternate_Pure_Caterium_Ingot >= 0.0
Caterium_Ingot_cost:  +1.0 Caterium_Ingot_cost  +268.73474715000003 Smelter_Caterium_Ingot  -214.98779772 Constructor_Quickwire  +214.98779772 Refinery_Alternate_Pure_Caterium_Ingot >= 0.0
Iron_Plate_balance:  +20.0 Constructor_Iron_Plate  +45.0 Foundry_Alternate_Steel_Cast_Plate  -30.0 Assembler_Reinforced_Iron_Plate  -90.0 Assembler_Alternate_Bolted_Iron_Plate  -11.25 Assembler_Alternate_Adhered_Iron_Plate  -15.0 Manufacturer_Gas_Filter >= 0.0
Iron_Plate_cost:  +1.0 Iron_Plate_cost  +76.5430298 Constructor_Iron_Plate  +172.22181705 Foundry_Alternate_Steel_Cast_Plate  -114.8145447 Assembler_Reinforced_Iron_Plate  -344.4436341 Assembler_Alternate_Bolted_Iron_Plate  -43.0554542625 Assembler_Alternate_Adhered_Iron_Plate  -57.40727235 Manufacturer_Gas_Filter >= 0.0
Iron_Rod_balance:  +15.0 Constructor_Iron_Rod  -10.0 Constructor_Screws  -15.0 Constructor_Iron_Rebar  +48.0 Constructor_Alternate_Steel_Rod  -12.0 Assembler_Modular_Frame  -20.0 Assembler_Rotor >= 0.0
Iron_Rod_cost:  +1.0 Iron_Rod_cost  +33.61285215 Constructor_Iron_Rod  -22.4085681 Constructor_Screws  -33.61285215 Constructor_Iron_Rebar  +107.56112687999999 Constructor_Alternate_Steel_Rod  -26.890281719999997 Assembler_Modular_Frame  -44.8171362 Assembler_Rotor >= 0.0
Screws_balance:  +40.0 Constructor_Screws  +50.0 Constructor_Alternate_Cast_Screws  +260.0 Constructor_Alternate_Steel_Screws  -60.0 Assembler_Reinforced_Iron_Plate  -100.0 Assembler_Rotor  -250.0 Assembler_Alternate_Bolted_Iron_Plate  -140.0 Assembler_Alternate_Bolted_Frame  -195.0 Assembler_Alternate_Coppor_Rotor  -120.0 Manufacturer_Heavy_Modular_Frame  -390.0 Manufacturer_Alternate_Heavy_Flexible_Frame >= 0.0
Screws_cost:  +1.0 Screws_cost  +57.914136799999994 Constructor_Screws  +72.39267099999999 Constructor_Alternate_Cast_Screws  +376.4418892 Constructor_Alternate_Steel_Screws  -86.87120519999999 Assembler_Reinforced_Iron_Plate  -144.78534199999999 Assembler_Rotor  -361.963355 Assembler_Alternate_Bolted_Iron_Plate  -202.69947879999998 Assembler_Alternate_Bolted_Frame  -282.33141689999997 Assembler_Alternate_Coppor_Rotor  -173.74241039999998 Manufacturer_Heavy_Modular_Frame
   -564.6628337999999 Manufacturer_Alternate_Heavy_Flexible_Frame >= 0.0
Copper_Sheet_balance:  +10.0 Constructor_Copper_Sheet  -15.0 Assembler_Circuit_Board  -25.0 Assembler_AI_Limiter  -15.0 Assembler_Rifle_Ammo  -22.5 Assembler_Alternate_Coppor_Rotor  +22.5 Refinery_Alternate_Steamed_Copper_Sheet >= 0.0
Copper_Sheet_cost:  +1.0 Copper_Sheet_cost  +81.6759945 Constructor_Copper_Sheet  -122.51399175000002 Assembler_Circuit_Board  -204.18998625000003 Assembler_AI_Limiter  -122.51399175000002 Assembler_Rifle_Ammo  -183.77098762500003 Assembler_Alternate_Coppor_Rotor  +183.77098762500003 Refinery_Alternate_Steamed_Copper_Sheet >= 0.0
Steel_Ingot_balance:  -60.0 Constructor_Steel_Beam  -30.0 Constructor_Steel_Pipe  -12.0 Constructor_Alternate_Steel_Rod  -40.0 Constructor_Alternate_Steel_Canister  +45.0 Foundry_Steel_Ingot  +60.0 Foundry_Alternate_Solid_Steel_Ingot  +100.0 Foundry_Alternate_Coke_Steel_Ingot  +10.0 Foundry_Alternate_Compacted_Steel_Ingot  -15.0 Foundry_Alternate_Steel_Cast_Plate  -120.0 Foundry_Alternate_Molded_Beam  -5.0 Foundry_Alternate_Molded_Steel_Pipe >= 0.0
Steel_Ingot_cost:  +1.0 Steel_Ingot_cost  -367.5116454 Constructor_Steel_Beam  -183.7558227 Constructor_Steel_Pipe  -73.50232908 Constructor_Alternate_Steel_Rod  -245.0077636 Constructor_Alternate_Steel_Canister  +275.63373405 Foundry_Steel_Ingot  +367.5116454 Foundry_Alternate_Solid_Steel_Ingot  +612.519409 Foundry_Alternate_Coke_Steel_Ingot  +61.2519409 Foundry_Alternate_Compacted_Steel_Ingot  -91.87791135 Foundry_Alternate_Steel_Cast_Plate  -735.0232908 Foundry_Alternate_Molded_Beam
   -30.62597045 Foundry_Alternate_Molded_Steel_Pipe >= 0.0
Steel_Beam_balance:  +15.0 Constructor_Steel_Beam  -5.0 Constructor_Alternate_Steel_Screws  +45.0 Foundry_Alternate_Molded_Beam  -30.0 Assembler_Versatile_Framework  -18.0 Assembler_Encased_Industrial_Beam >= 0.0
Steel_Beam_cost:  +1.0 Steel_Beam_cost  +376.77265245 Constructor_Steel_Beam  -125.59088415 Constructor_Alternate_Steel_Screws  +1130.31795735 Foundry_Alternate_Molded_Beam  -753.5453049 Assembler_Versatile_Framework  -452.12718294 Assembler_Encased_Industrial_Beam >= 0.0
Steel_Pipe_balance:  +20.0 Constructor_Steel_Pipe  +25.0 Constructor_Alternate_Iron_Pipe  +50.0 Foundry_Alternate_Molded_Steel_Pipe  -15.0 Assembler_Stator  -20.0 Assembler_Nobelisk  -10.0 Assembler_Alternate_Steeled_Frame  -10.0 Assembler_Alternate_Steel_Rotor  -40.0 Manufacturer_Heavy_Modular_Frame  -30.0 Manufacturer_SAM_Fluctuator  -33.75 Manufacturer_Alternate_Heavy_Encased_Frame >= 0.0
Steel_Pipe_cost:  +1.0 Steel_Pipe_cost  +165.8699768 Constructor_Steel_Pipe  +207.337471 Constructor_Alternate_Iron_Pipe  +414.674942 Foundry_Alternate_Molded_Steel_Pipe  -124.4024826 Assembler_Stator  -165.8699768 Assembler_Nobelisk  -82.9349884 Assembler_Alternate_Steeled_Frame  -82.9349884 Assembler_Alternate_Steel_Rotor  -331.7399536 Manufacturer_Heavy_Modular_Frame  -248.8049652 Manufacturer_SAM_Fluctuator  -279.90558584999997 Manufacturer_Alternate_Heavy_Encased_Frame >= 0.0
Wire_balance:  +30.0 Constructor_Wire  -60.0 Constructor_Cable  -8.0 Assembler_Stator  -30.0 Assembler_Alternate_Steel_Rotor  -50.0 Manufacturer_SAM_Fluctuator >= 0.0
Wire_cost:  +1.0 Wire_cost  +107.3987733 Constructor_Wire  -214.7975466 Constructor_Cable  -28.63967288 Assembler_Stator  -107.3987733 Assembler_Alternate_Steel_Rotor  -178.9979555 Manufacturer_SAM_Fluctuator >= 0.0
Cable_balance:  +30.0 Constructor_Cable  -50.0 Assembler_Automated_Wiring  -37.5 Manufacturer_High_Speed_Connector  -20.0 Manufacturer_Computer  -14.0 Manufacturer_Crystal_Oscillator >= 0.0
Cable_cost:  +1.0 Cable_cost  +178.0310586 Constructor_Cable  -296.718431 Assembler_Automated_Wiring  -222.53882325 Manufacturer_High_Speed_Connector  -118.6873724 Manufacturer_Computer  -83.08116068 Manufacturer_Crystal_Oscillator >= 0.0
Quickwire_balance:  +60.0 Constructor_Quickwire  -100.0 Assembler_AI_Limiter  -50.0 Assembler_Stun_Rebar  -37.5 Assembler_Alternate_Caterium_Circuit_Board  -120.0 Assembler_Alternate_Plastic_AI_Limiter  -210.0 Manufacturer_High_Speed_Connector  -90.0 Manufacturer_Alternate_Silicon_High_Speed_Connector  -52.5 Manufacturer_Alternate_Caterium_Computer >= 0.0
Quickwire_cost:  +1.0 Quickwire_cost  +251.30063159999997 Constructor_Quickwire  -418.834386 Assembler_AI_Limiter  -209.417193 Assembler_Stun_Rebar  -157.06289475 Assembler_Alternate_Caterium_Circuit_Board  -502.60126319999995 Assembler_Alternate_Plastic_AI_Limiter  -879.5522106 Manufacturer_High_Speed_Connector  -376.95094739999996 Manufacturer_Alternate_Silicon_High_Speed_Connector  -219.88805265 Manufacturer_Alternate_Caterium_Computer >= 0.0
SAM_cost:  +1.0 SAM_cost  -179.66865959999998 Constructor_Reanimated_SAM >= 0.0
Reanimated_SAM_balance:  +30.0 Constructor_Reanimated_SAM  -60.0 Manufacturer_SAM_Fluctuator >= 0.0
Reanimated_SAM_cost:  +1.0 Reanimated_SAM_cost  +185.6576154 Constructor_Reanimated_SAM  -371.3152308 Manufacturer_SAM_Fluctuator >= 0.0
Limestone_cost:  +1.0 Limestone_cost  -143.2402344 Constructor_Concrete  -381.9739584 Refinery_Alternate_Wet_Concrete >= 0.0
Concrete_balance:  +15.0 Constructor_Concrete  -80.0 Foundry_Alternate_Molded_Beam  -30.0 Foundry_Alternate_Molded_Steel_Pipe  -36.0 Assembler_Encased_Industrial_Beam  -20.625 Manufacturer_Alternate_Heavy_Encased_Frame  +80.0 Refinery_Alternate_Wet_Concrete >= 0.0
Concrete_cost:  +1.0 Concrete_cost  +150.2765967 Constructor_Concrete  -801.4751824 Foundry_Alternate_Molded_Beam  -300.5531934 Foundry_Alternate_Molded_Steel_Pipe  -360.66383207999996 Assembler_Encased_Industrial_Beam  -206.63032046249998 Manufacturer_Alternate_Heavy_Encased_Frame  +801.4751824 Refinery_Alternate_Wet_Concrete >= 0.0
Raw_Quartz_cost:  +1.0 Raw_Quartz_cost  -168.65908050000002 Constructor_Quartz_Crystal  -101.1954483 Constructor_Silica >= 0.0
Quartz_Crystal_balance:  +22.5 Constructor_Quartz_Crystal  -15.0 Assembler_Shatter_Rebar  -18.0 Manufacturer_Crystal_Oscillator  -18.75 Manufacturer_Alternate_Insulated_Crystal_Oscillator >= 0.0
Quartz_Crystal_cost:  +1.0 Quartz_Crystal_cost  +138.0490794 Constructor_Quartz_Crystal  -92.03271960000001 Assembler_Shatter_Rebar  -110.43926352 Manufacturer_Crystal_Oscillator  -115.04089950000001 Manufacturer_Alternate_Insulated_Crystal_Oscillator >= 0.0
Silica_balance:  +37.5 Constructor_Silica  -37.5 Manufacturer_Alternate_Silicon_High_Speed_Connector >= 0.0
Silica_cost:  +1.0 Silica_cost  +167.78605312500002 Constructor_Silica  -167.78605312500002 Manufacturer_Alternate_Silicon_High_Speed_Connector >= 0.0
Leaves_cost:  +1.0 Leaves_cost  -120.0 Constructor_Biomass_Leaves >= 0.0
Biomass_balance:  +60.0 Constructor_Biomass_Leaves  +300.0 Constructor_Biomass_Wood  +150.0 Constructor_Biomass_Mycelia  +100.0 Constructor_Biomass_Alien_Protein  -120.0 Constructor_Solid_Biofuel  -37.5 Constructor_Alternate_Biocoal  -75.0 Assembler_Fabric  -50.0 Assembler_Gas_Nobelisk >= 0.0
Biomass_cost:  +1.0 Biomass_cost  +132.1984638 Constructor_Biomass_Leaves  +660.9923190000001 Constructor_Biomass_Wood  +330.49615950000003 Constructor_Biomass_Mycelia  +220.33077300000002 Constructor_Biomass_Alien_Protein  -264.3969276 Constructor_Solid_Biofuel  -82.62403987500001 Constructor_Alternate_Biocoal  -165.24807975000002 Assembler_Fabric  -110.16538650000001 Assembler_Gas_Nobelisk >= 0.0
Wood_cost:  +1.0 Wood_cost  -711.9433074 Constructor_Biomass_Wood  -177.98582685 Constructor_Alternate_Charcoal >= 0.0
Mycelia_cost:  +1.0 Mycelia_cost  -58.5421797 Constructor_Biomass_Mycelia  -58.5421797 Assembler_Fabric >= 0.0
Alien_Protein_balance:  -1.0 Constructor_Biomass_Alien_Protein  +20.0 Constructor_Hog_Protein  +20.0 Constructor_Hatcher_Protein  +20.0 Constructor_Stinger_Protein  +20.0 Constructor_Spitter_Protein  -10.0 Constructor_Alien_DNA_Capsule >= 0.0
Alien_Protein_cost:  +1.0 Alien_Protein_cost  -25.12878519 Constructor_Biomass_Alien_Protein  +502.5757038 Constructor_Hog_Protein  +502.5757038 Constructor_Hatcher_Protein  +502.5757038 Constructor_Stinger_Protein  +502.5757038 Constructor_Spitter_Protein  -251.2878519 Constructor_Alien_DNA_Capsule >= 0.0
Solid_Biofuel_balance:  +60.0 Constructor_Solid_Biofuel  -90.0 Refinery_Liquid_Biofuel >= 0.0
Solid_Biofuel_cost:  +1.0 Solid_Biofuel_cost  +346.211277 Constructor_Solid_Biofuel  -519.3169155 Refinery_Liquid_Biofuel >= 0.0
Plastic_balance:  -30.0 Constructor_Emtpy_Canister  -30.0 Assembler_Circuit_Board  -12.5 Assembler_Alternate_Caterium_Circuit_Board  -28.0 Assembler_Alternate_Plastic_AI_Limiter  -40.0 Manufacturer_Computer  +20.0 Refinery_Plastic  +20.0 Refinery_Residual_Plastic  +60.0 Refinery_Alternate_Recycled_Plastic  -30.0 Refinery_Alternate_Recycled_Rubber >= 0.0
Plastic_cost:  +1.0 Plastic_cost  -295.8268458 Constructor_Emtpy_Canister  -295.8268458 Assembler_Circuit_Board  -123.26118575 Assembler_Alternate_Caterium_Circuit_Board  -276.10505608 Assembler_Alternate_Plastic_AI_Limiter  -394.4357944 Manufacturer_Computer  +197.2178972 Refinery_Plastic  +197.2178972 Refinery_Residual_Plastic  +591.6536916 Refinery_Alternate_Recycled_Plastic  -295.8268458 Refinery_Alternate_Recycled_Rubber >= 0.0
Empty_Canister_balance:  +60.0 Constructor_Emtpy_Canister  +40.0 Constructor_Alternate_Steel_Canister >= 0.0
Empty_Canister_cost:  +1.0 Empty_Canister_cost  +520.4892444 Constructor_Emtpy_Canister  +346.9928296 Constructor_Alternate_Steel_Canister >= 0.0
Hog_Remains_cost:  +1.0 Hog_Remains_cost  -418.8130866 Constructor_Hog_Protein >= 0.0
Hatcher_Remains_cost:  +1.0 Hatcher_Remains_cost  -418.8130866 Constructor_Hatcher_Protein >= 0.0
Stinger_Remains_cost:  +1.0 Stinger_Remains_cost  -418.8130866 Constructor_Stinger_Protein >= 0.0
Spitter_Remains_cost:  +1.0 Spitter_Remains_cost  -418.8130866 Constructor_Spitter_Protein >= 0.0
Alien_DNA_Capsule_balance:  +10.0 Constructor_Alien_DNA_Capsule >= 0.0
Alien_DNA_Capsule_cost:  +1.0 Alien_DNA_Capsule_cost  +266.19472340000004 Constructor_Alien_DNA_Capsule >= 0.0
Blue_Power_Slug_cost:  +1.0 Blue_Power_Slug_cost  -17.192767049999997 Constructor_Power_Shard_1 >= 0.0
Power_Shard_balance:  +7.5 Constructor_Power_Shard_1  +10.0 Constructor_Power_Shard_2  +12.5 Constructor_Power_Shard_3 >= 0.0
Power_Shard_cost:  +1.0 Power_Shard_cost  +25.0610331 Constructor_Power_Shard_1  +33.414710799999995 Constructor_Power_Shard_2  +41.7683885 Constructor_Power_Shard_3 >= 0.0
Yellow_Power_Slug_cost:  +1.0 Yellow_Power_Slug_cost  -19.5275873 Constructor_Power_Shard_2 >= 0.0
Purple_Power_Slug_cost:  +1.0 Purple_Power_Slug_cost  -16.898873599999998 Constructor_Power_Shard_3 >= 0.0
Iron_Rebar_balance:  +15.0 Constructor_Iron_Rebar  -10.0 Assembler_Stun_Rebar  -10.0 Assembler_Shatter_Rebar >= 0.0
Iron_Rebar_cost:  +1.0 Iron_Rebar_cost  +60.43660979999999 Constructor_Iron_Rebar  -40.2910732 Assembler_Stun_Rebar  -40.2910732 Assembler_Shatter_Rebar >= 0.0
Coal_cost:  +1.0 Coal_cost  +127.6932132 Constructor_Alternate_Biocoal  +425.644044 Constructor_Alternate_Charcoal  -127.6932132 Foundry_Steel_Ingot  -113.5050784 Foundry_Alternate_Solid_Steel_Ingot  -42.5644044 Assembler_Black_Powder  -70.940674 Assembler_Alternate_Compacted_Coal  -85.1288088 Manufacturer_Gas_Filter >= 0.0
Petroleum_Coke_balance:  -75.0 Foundry_Alternate_Coke_Steel_Ingot  +120.0 Refinery_Petroleum_Coke >= 0.0
Petroleum_Coke_cost:  +1.0 Petroleum_Coke_cost  -288.97195125 Foundry_Alternate_Coke_Steel_Ingot  +462.355122 Refinery_Petroleum_Coke >= 0.0
Compacted_Coal_balance:  -2.5 Foundry_Alternate_Compacted_Steel_Ingot  +25.0 Assembler_Alternate_Compacted_Coal  -30.0 Refinery_Alternate_Turbo_Heavy_Fuel >= 0.0
Compacted_Coal_cost:  +1.0 Compacted_Coal_cost  -18.133141775 Foundry_Alternate_Compacted_Steel_Ingot  +181.33141774999999 Assembler_Alternate_Compacted_Coal  -217.59770129999998 Refinery_Alternate_Turbo_Heavy_Fuel >= 0.0
Reinforced_Iron_Plate_balance:  -2.0 Assembler_Smart_Plating  +5.0 Assembler_Reinforced_Iron_Plate  -3.0 Assembler_Modular_Frame  +15.0 Assembler_Alternate_Bolted_Iron_Plate  +3.75 Assembler_Alternate_Adhered_Iron_Plate  -7.5 Assembler_Alternate_Bolted_Frame  -2.0 Assembler_Alternate_Steeled_Frame  -2.5 Manufacturer_Crystal_Oscillator >= 0.0
Reinforced_Iron_Plate_cost:  +1.0 Reinforced_Iron_Plate_cost  -53.05138992 Assembler_Smart_Plating  +132.6284748 Assembler_Reinforced_Iron_Plate  -79.57708488 Assembler_Modular_Frame  +397.8854244 Assembler_Alternate_Bolted_Iron_Plate  +99.4713561 Assembler_Alternate_Adhered_Iron_Plate  -198.9427122 Assembler_Alternate_Bolted_Frame  -53.05138992 Assembler_Alternate_Steeled_Frame  -66.3142374 Manufacturer_Crystal_Oscillator >= 0.0
Rotor_balance:  -2.0 Assembler_Smart_Plating  +4.0 Assembler_Rotor  -10.0 Assembler_Motor  +11.25 Assembler_Alternate_Coppor_Rotor  +5.0 Assembler_Alternate_Steel_Rotor >= 0.0
Rotor_cost:  +1.0 Rotor_cost  -60.46360146 Assembler_Smart_Plating  +120.92720292 Assembler_Rotor  -302.3180073 Assembler_Motor  +340.1077582125 Assembler_Alternate_Coppor_Rotor  +151.15900365 Assembler_Alternate_Steel_Rotor >= 0.0
Smart_Plating_balance:  +2.0 Assembler_Smart_Plating  -2.0 Manufacturer_Modular_Engine >= 0.0
Smart_Plating_cost:  +1.0 Smart_Plating_cost  +97.3812705 Assembler_Smart_Plating  -97.3812705 Manufacturer_Modular_Engine >= 0.0
Modular_Frame_balance:  -2.5 Assembler_Versatile_Framework  +2.0 Assembler_Modular_Frame  +5.0 Assembler_Alternate_Bolted_Frame  +3.0 Assembler_Alternate_Steeled_Frame  -10.0 Manufacturer_Heavy_Modular_Frame  -7.5 Manufacturer_Alternate_Heavy_Encased_Frame  -18.75 Manufacturer_Alternate_Heavy_Flexible_Frame >= 0.0
Modular_Frame_cost:  +1.0 Modular_Frame_cost  -112.17633512500001 Assembler_Versatile_Framework  +89.7410681 Assembler_Modular_Frame  +224.35267025000002 Assembler_Alternate_Bolted_Frame  +134.61160215 Assembler_Alternate_Steeled_Frame  -448.70534050000003 Manufacturer_Heavy_Modular_Frame  -336.529005375 Manufacturer_Alternate_Heavy_Encased_Frame  -841.3225134375001 Manufacturer_Alternate_Heavy_Flexible_Frame >= 0.0
Versatile_Framework_balance:  +5.0 Assembler_Versatile_Framework >= 0.0
Versatile_Framework_cost:  +1.0 Versatile_Framework_cost  +921.62240805 Assembler_Versatile_Framework >= 0.0
Stator_balance:  -2.5 Assembler_Automated_Wiring  +5.0 Assembler_Stator  -10.0 Assembler_Motor >= 0.0
Stator_cost:  +1.0 Stator_cost  -61.993065349999995 Assembler_Automated_Wiring  +123.98613069999999 Assembler_Stator  -247.97226139999998 Assembler_Motor >= 0.0
Automated_Wiring_balance:  +2.5 Assembler_Automated_Wiring  -5.0 Manufacturer_Adaptive_Control_Unit >= 0.0
Automated_Wiring_cost:  +1.0 Automated_Wiring_cost  +248.57536844999998 Assembler_Automated_Wiring  -497.15073689999997 Manufacturer_Adaptive_Control_Unit >= 0.0
Encased_Industrial_Beam_balance:  +6.0 Assembler_Encased_Industrial_Beam  -10.0 Manufacturer_Heavy_Modular_Frame  -9.375 Manufacturer_Alternate_Heavy_Encased_Frame  -11.25 Manufacturer_Alternate_Heavy_Flexible_Frame >= 0.0
Encased_Industrial_Beam_cost:  +1.0 Encased_Industrial_Beam_cost  +470.14674299999996 Assembler_Encased_Industrial_Beam  -783.5779049999999 Manufacturer_Heavy_Modular_Frame  -734.6042859375 Manufacturer_Alternate_Heavy_Encased_Frame  -881.5251431249999 Manufacturer_Alternate_Heavy_Flexible_Frame >= 0.0
Circuit_Board_balance:  +7.5 Assembler_Circuit_Board  +8.75 Assembler_Alternate_Caterium_Circuit_Board  -5.0 Manufacturer_Adaptive_Control_Unit  -3.75 Manufacturer_High_Speed_Connector  -10.0 Manufacturer_Computer  -3.0 Manufacturer_Alternate_Silicon_High_Speed_Connector  -15.0 Manufacturer_Alternate_Caterium_Computer >= 0.0
Circuit_Board_cost:  +1.0 Circuit_Board_cost  +219.240572625 Assembler_Circuit_Board  +255.7806680625 Assembler_Alternate_Caterium_Circuit_Board  -146.16038175 Manufacturer_Adaptive_Control_Unit  -109.6202863125 Manufacturer_High_Speed_Connector  -292.3207635 Manufacturer_Computer  -87.69622905 Manufacturer_Alternate_Silicon_High_Speed_Connector  -438.48114525 Manufacturer_Alternate_Caterium_Computer >= 0.0
AI_Limiter_balance:  +5.0 Assembler_AI_Limiter  +8.0 Assembler_Alternate_Plastic_AI_Limiter  -1.875 Manufacturer_Alternate_Insulated_Crystal_Oscillator >= 0.0
AI_Limiter_cost:  +1.0 AI_Limiter_cost  +313.10762545 Assembler_AI_Limiter  +500.97220072 Assembler_Alternate_Plastic_AI_Limiter  -117.41535954375 Manufacturer_Alternate_Insulated_Crystal_Oscillator >= 0.0
Fabric_balance:  +15.0 Assembler_Fabric  -15.0 Manufacturer_Gas_Filter  +30.0 Refinery_Alternate_Polyester_Fabric >= 0.0
Fabric_cost:  +1.0 Fabric_cost  +153.452526 Assembler_Fabric  -153.452526 Manufacturer_Gas_Filter  +306.905052 Refinery_Alternate_Polyester_Fabric >= 0.0
Motor_balance:  +5.0 Assembler_Motor  -2.0 Manufacturer_Modular_Engine >= 0.0
Motor_cost:  +1.0 Motor_cost  +336.4805665 Assembler_Motor  -134.5922266 Manufacturer_Modular_Engine >= 0.0
Sulfur_cost:  +1.0 Sulfur_cost  -42.33381045 Assembler_Black_Powder  -70.55635075 Assembler_Alternate_Compacted_Coal >= 0.0
Black_Powder_balance:  +30.0 Assembler_Black_Powder  -20.0 Assembler_Nobelisk  -20.0 Refinery_Residual_Smokeless_Powder >= 0.0
Black_Powder_cost:  +1.0 Black_Powder_cost  +129.1165254 Assembler_Black_Powder  -86.0776836 Assembler_Nobelisk  -86.0776836 Refinery_Residual_Smokeless_Powder >= 0.0
Stun_Rebar_balance:  +10.0 Assembler_Stun_Rebar >= 0.0
Stun_Rebar_cost:  +1.0 Stun_Rebar_cost  +305.609034 Assembler_Stun_Rebar >= 0.0
Shatter_Rebar_balance:  +5.0 Assembler_Shatter_Rebar >= 0.0
Shatter_Rebar_cost:  +1.0 Shatter_Rebar_cost  +188.22456075000002 Assembler_Shatter_Rebar >= 0.0
Nobelisk_balance:  +10.0 Assembler_Nobelisk  -5.0 Assembler_Gas_Nobelisk  -5.0 Assembler_Pulse_Nobelisk >= 0.0
Nobelisk_cost:  +1.0 Nobelisk_cost  +199.02889399999998 Assembler_Nobelisk  -99.51444699999999 Assembler_Gas_Nobelisk  -99.51444699999999 Assembler_Pulse_Nobelisk >= 0.0
Gas_Nobelisk_balance:  +5.0 Assembler_Gas_Nobelisk >= 0.0
Gas_Nobelisk_cost:  +1.0 Gas_Nobelisk_cost  +265.58060165 Assembler_Gas_Nobelisk >= 0.0
Crystal_Oscillator_balance:  -1.0 Assembler_Pulse_Nobelisk  +1.0 Manufacturer_Crystal_Oscillator  +1.875 Manufacturer_Alternate_Insulated_Crystal_Oscillator >= 0.0
Crystal_Oscillator_cost:  +1.0 Crystal_Oscillator_cost  -199.5857125 Assembler_Pulse_Nobelisk  +199.5857125 Manufacturer_Crystal_Oscillator  +374.22321093749997 Manufacturer_Alternate_Insulated_Crystal_Oscillator >= 0.0
Pulse_Nobelisk_balance:  +5.0 Assembler_Pulse_Nobelisk >= 0.0
Pulse_Nobelisk_cost:  +1.0 Pulse_Nobelisk_cost  +355.0009275 Assembler_Pulse_Nobelisk >= 0.0
Smokeless_Powder_balance:  -10.0 Assembler_Rifle_Ammo  +20.0 Refinery_Residual_Smokeless_Powder >= 0.0
Smokeless_Powder_cost:  +1.0 Smokeless_Powder_cost  -112.9992268 Assembler_Rifle_Ammo  +225.9984536 Refinery_Residual_Smokeless_Powder >= 0.0
Rifle_Ammo_balance:  +75.0 Assembler_Rifle_Ammo >= 0.0
Rifle_Ammo_cost:  +1.0 Rifle_Ammo_cost  +291.41398649999996 Assembler_Rifle_Ammo >= 0.0
Rubber_balance:  -3.75 Assembler_Alternate_Adhered_Iron_Plate  -15.0 Manufacturer_Modular_Engine  -75.0 Manufacturer_Alternate_Heavy_Flexible_Frame  -22.5 Manufacturer_Alternate_Caterium_Computer  -13.125 Manufacturer_Alternate_Insulated_Crystal_Oscillator  +2.0 Refinery_Rubber  +20.0 Refinery_Residual_Rubber  -30.0 Refinery_Alternate_Recycled_Plastic  +60.0 Refinery_Alternate_Recycled_Rubber >= 0.0
Rubber_cost:  +1.0 Rubber_cost  -37.9578036 Assembler_Alternate_Adhered_Iron_Plate  -151.8312144 Manufacturer_Modular_Engine  -759.156072 Manufacturer_Alternate_Heavy_Flexible_Frame  -227.7468216 Manufacturer_Alternate_Caterium_Computer  -132.8523126 Manufacturer_Alternate_Insulated_Crystal_Oscillator  +20.24416192 Refinery_Rubber  +202.4416192 Refinery_Residual_Rubber  -303.6624288 Refinery_Alternate_Recycled_Plastic  +607.3248576 Refinery_Alternate_Recycled_Rubber >= 0.0
Modular_Engine_balance:  +1.0 Manufacturer_Modular_Engine >= 0.0
Modular_Engine_cost:  +1.0 Modular_Engine_cost  +588.77419419 Manufacturer_Modular_Engine >= 0.0
Heavy_Modular_Frame_balance:  -1.0 Manufacturer_Adaptive_Control_Unit  +2.0 Manufacturer_Heavy_Modular_Frame  +2.813 Manufacturer_Alternate_Heavy_Encased_Frame  +3.75 Manufacturer_Alternate_Heavy_Flexible_Frame >= 0.0
Heavy_Modular_Frame_cost:  +1.0 Heavy_Modular_Frame_cost  -435.5678397 Manufacturer_Adaptive_Control_Unit  +871.1356794 Manufacturer_Heavy_Modular_Frame  +1225.2523330761 Manufacturer_Alternate_Heavy_Encased_Frame  +1633.3793988749999 Manufacturer_Alternate_Heavy_Flexible_Frame >= 0.0
Computer_output:  -2.0 Manufacturer_Adaptive_Control_Unit  +2.5 Manufacturer_Computer  +3.75 Manufacturer_Alternate_Caterium_Computer >= 1.0
Adaptive_Control_Unit_balance:  +1.0 Manufacturer_Adaptive_Control_Unit >= 0.0
Adaptive_Control_Unit_cost:  +1.0 Adaptive_Control_Unit_cost  +1660.74508277 Manufacturer_Adaptive_Control_Unit >= 0.0
High_Speed_Connector_balance:  +3.75 Manufacturer_High_Speed_Connector  +3.0 Manufacturer_Alternate_Silicon_High_Speed_Connector >= 0.0
High_Speed_Connector_cost:  +1.0 High_Speed_Connector_cost  +1252.2686188125 Manufacturer_High_Speed_Connector  +1001.8148950500001 Manufacturer_Alternate_Silicon_High_Speed_Connector >= 0.0
SAM_Fluctuator_balance:  +10.0 Manufacturer_SAM_Fluctuator >= 0.0
SAM_Fluctuator_cost:  +1.0 SAM_Fluctuator_cost  +1004.0876344999999 Manufacturer_SAM_Fluctuator >= 0.0
Gas_Filter_balance:  +7.5 Manufacturer_Gas_Filter >= 0.0
Gas_Filter_cost:  +1.0 Gas_Filter_cost  +500.958089925 Manufacturer_Gas_Filter >= 0.0
Crude_Oil_cost:  +1.0 Crude_Oil_cost  -215.46177029999998 Refinery_Plastic  -215.46177029999998 Refinery_Rubber  -430.92354059999997 Refinery_Fuel  -215.46177029999998 Refinery_Alternate_Heavy_Oil_Residue >= 0.0
Heavy_Oil_Residue_balance:  +10.0 Refinery_Plastic  +20.0 Refinery_Rubber  -40.0 Refinery_Petroleum_Coke  -60.0 Refinery_Residual_Fuel  -10.0 Refinery_Residual_Smokeless_Powder  +40.0 Refinery_Alternate_Heavy_Oil_Residue  -30.0 Refinery_Alternate_Diluted_Packaged_Fuel  -37.5 Refinery_Alternate_Turbo_Heavy_Fuel >= 0.0
Heavy_Oil_Residue_cost:  +1.0 Heavy_Oil_Residue_cost  +79.67815660000001 Refinery_Plastic  +159.35631320000002 Refinery_Rubber  -318.71262640000003 Refinery_Petroleum_Coke  -478.0689396 Refinery_Residual_Fuel  -79.67815660000001 Refinery_Residual_Smokeless_Powder  +318.71262640000003 Refinery_Alternate_Heavy_Oil_Residue  -239.0344698 Refinery_Alternate_Diluted_Packaged_Fuel  -298.79308725 Refinery_Alternate_Turbo_Heavy_Fuel >= 0.0
Polymer_Resin_balance:  -60.0 Refinery_Residual_Plastic  -40.0 Refinery_Residual_Rubber  +30.0 Refinery_Fuel  +20.0 Refinery_Alternate_Heavy_Oil_Residue  -30.0 Refinery_Alternate_Polyester_Fabric >= 0.0
Polymer_Resin_cost:  +1.0 Polymer_Resin_cost  -281.6923872 Refinery_Residual_Plastic  -187.7949248 Refinery_Residual_Rubber  +140.8461936 Refinery_Fuel  +93.8974624 Refinery_Alternate_Heavy_Oil_Residue  -140.8461936 Refinery_Alternate_Polyester_Fabric >= 0.0
Water_cost:  +1.0 Water_cost  -108.6316814 Refinery_Residual_Plastic  -217.2633628 Refinery_Residual_Rubber  -244.42128315000002 Refinery_Liquid_Biofuel  -108.6316814 Refinery_Alternate_Pure_Iron_Ingot  -54.3158407 Refinery_Alternate_Pure_Copper_Ingot  -130.35801768000002 Refinery_Alternate_Pure_Caterium_Ingot  -543.158407 Refinery_Alternate_Wet_Concrete  -122.21064157500001 Refinery_Alternate_Steamed_Copper_Sheet  -162.94752210000001 Refinery_Alternate_Polyester_Fabric >= 0.0
Fuel_balance:  +40.0 Refinery_Fuel  +40.0 Refinery_Residual_Fuel  -30.0 Refinery_Alternate_Recycled_Plastic  -30.0 Refinery_Alternate_Recycled_Rubber >= 0.0
Fuel_cost:  +1.0 Fuel_cost  +414.36738320000006 Refinery_Fuel  +414.36738320000006 Refinery_Residual_Fuel  -310.7755374 Refinery_Alternate_Recycled_Plastic  -310.7755374 Refinery_Alternate_Recycled_Rubber >= 0.0
Liquid_Biofuel_balance:  +60.0 Refinery_Liquid_Biofuel >= 0.0
Liquid_Biofuel_cost:  +1.0 Liquid_Biofuel_cost  +953.0155032 Refinery_Liquid_Biofuel >= 0.0
Packaged_Water_balance:  -60.0 Refinery_Alternate_Diluted_Packaged_Fuel >= 0.0
Packaged_Water_cost:  +1.0 Packaged_Water_cost  -807.2674476 Refinery_Alternate_Diluted_Packaged_Fuel >= 0.0
Packaged_Fuel_balance:  +60.0 Refinery_Alternate_Diluted_Packaged_Fuel >= 0.0
Packaged_Fuel_cost:  +1.0 Packaged_Fuel_cost  +1116.340491 Refinery_Alternate_Diluted_Packaged_Fuel >= 0.0
Turbofuel_balance:  +30.0 Refinery_Alternate_Turbo_Heavy_Fuel >= 0.0
Turbofuel_cost:  +1.0 Turbofuel_cost  +689.9653539 Refinery_Alternate_Turbo_Heavy_Fuel >= 0.0
Bounds
Integers
Smelter_Iron_Ingot Smelter_Copper_Ingot Smelter_Caterium_Ingot Constructor_Iron_Plate Constructor_Iron_Rod Constructor_Screws Constructor_Copper_Sheet Constructor_Steel_Beam Constructor_Steel_Pipe Constructor_Wire Constructor_Cable Constructor_Quickwire Constructor_Reanimated_SAM Constructor_Concrete Constructor_Quartz_Crystal Constructor_Silica Constructor_Biomass_Leaves Constructor_Biomass_Wood Constructor_Biomass_Mycelia Constructor_Biomass_Alien_Protein Constructor_Solid_Biofuel 
Constructor_Emtpy_Canister Constructor_Hog_Protein Constructor_Hatcher_Protein Constructor_Stinger_Protein Constructor_Spitter_Protein Constructor_Alien_DNA_Capsule Constructor_Power_Shard_1 Constructor_Power_Shard_2 Constructor_Power_Shard_3 Constructor_Iron_Rebar Constructor_Alternate_Steel_Rod Constructor_Alternate_Cast_Screws Constructor_Alternate_Steel_Screws Constructor_Alternate_Iron_Pipe Constructor_Alternate_Biocoal Constructor_Alternate_Charcoal Constructor_Alternate_Steel_Canister 
Foundry_Steel_Ingot Foundry_Alternate_Solid_Steel_Ingot Foundry_Alternate_Coke_Steel_Ingot Foundry_Alternate_Compacted_Steel_Ingot Foundry_Alternate_Steel_Cast_Plate Foundry_Alternate_Molded_Beam Foundry_Alternate_Molded_Steel_Pipe Assembler_Smart_Plating Assembler_Versatile_Framework Assembler_Automated_Wiring Assembler_Reinforced_Iron_Plate Assembler_Modular_Frame Assembler_Encased_Industrial_Beam Assembler_Circuit_Board Assembler_AI_Limiter Assembler_Fabric Assembler_Rotor Assembler_Stator 
Assembler_Motor Assembler_Black_Powder Assembler_Stun_Rebar Assembler_Shatter_Rebar Assembler_Nobelisk Assembler_Gas_Nobelisk Assembler_Pulse_Nobelisk Assembler_Rifle_Ammo Assembler_Alternate_Bolted_Iron_Plate Assembler_Alternate_Adhered_Iron_Plate Assembler_Alternate_Bolted_Frame Assembler_Alternate_Steeled_Frame Assembler_Alternate_Caterium_Circuit_Board Assembler_Alternate_Plastic_AI_Limiter Assembler_Alternate_Compacted_Coal Assembler_Alternate_Coppor_Rotor Assembler_Alternate_Steel_Rotor 
Manufacturer_Modular_Engine Manufacturer_Adaptive_Control_Unit Manufacturer_Heavy_Modular_Frame Manufacturer_High_Speed_Connector Manufacturer_SAM_Fluctuator Manufacturer_Computer Manufacturer_Crystal_Oscillator Manufacturer_Gas_Filter Manufacturer_Alternate_Heavy_Encased_Frame Manufacturer_Alternate_Heavy_Flexible_Frame Manufacturer_Alternate_Silicon_High_Speed_Connector Manufacturer_Alternate_Caterium_Computer Manufacturer_Alternate_Insulated_Crystal_Oscillator Refinery_Plastic 
Refinery_Residual_Plastic Refinery_Rubber Refinery_Residual_Rubber Refinery_Petroleum_Coke Refinery_Fuel Refinery_Residual_Fuel Refinery_Liquid_Biofuel Refinery_Residual_Smokeless_Powder Refinery_Alternate_Recycled_Plastic Refinery_Alternate_Recycled_Rubber Refinery_Alternate_Heavy_Oil_Residue Refinery_Alternate_Diluted_Packaged_Fuel Refinery_Alternate_Turbo_Heavy_Fuel Refinery_Alternate_Pure_Iron_Ingot Refinery_Alternate_Pure_Copper_Ingot Refinery_Alternate_Pure_Caterium_Ingot 
Refinery_Alternate_Wet_Concrete Refinery_Alternate_Steamed_Copper_Sheet Refinery_Alternate_Polyester_Fabric Iron_Ore_cost MWm_cost Iron_Ingot_cost Copper_Ore_cost Copper_Ingot_cost Caterium_Ore_cost Caterium_Ingot_cost Iron_Plate_cost Iron_Rod_cost Screws_cost Copper_Sheet_cost Steel_Ingot_cost Steel_Beam_cost Steel_Pipe_cost Wire_cost Cable_cost Quickwire_cost SAM_cost Reanimated_SAM_cost Limestone_cost Concrete_cost Raw_Quartz_cost Quartz_Crystal_cost Silica_cost Leaves_cost Biomass_cost 
Wood_cost Mycelia_cost Alien_Protein_cost Solid_Biofuel_cost Plastic_cost Empty_Canister_cost Hog_Remains_cost Hatcher_Remains_cost Stinger_Remains_cost Spitter_Remains_cost Alien_DNA_Capsule_cost Blue_Power_Slug_cost Power_Shard_cost Yellow_Power_Slug_cost Purple_Power_Slug_cost Iron_Rebar_cost Coal_cost Petroleum_Coke_cost Compacted_Coal_cost Reinforced_Iron_Plate_cost Rotor_cost Smart_Plating_cost Modular_Frame_cost Versatile_Framework_cost Stator_cost Automated_Wiring_cost 
Encased_Industrial_Beam_cost Circuit_Board_cost AI_Limiter_cost Fabric_cost Motor_cost Sulfur_cost Black_Powder_cost Stun_Rebar_cost Shatter_Rebar_cost Nobelisk_cost Gas_Nobelisk_cost Crystal_Oscillator_cost Pulse_Nobelisk_cost Smokeless_Powder_cost Rifle_Ammo_cost Rubber_cost Modular_Engine_cost Heavy_Modular_Frame_cost Adaptive_Control_Unit_cost High_Speed_Connector_cost SAM_Fluctuator_cost Gas_Filter_cost Crude_Oil_cost Heavy_Oil_Residue_cost Polymer_Resin_cost Water_cost Fuel_cost 
Liquid_Biofuel_cost Packaged_Water_cost Packaged_Fuel_cost Turbofuel_cost 
End